sat
(:arith-bound-propagations-lp 192
 :arith-conflicts             3
 :arith-lower                 119
 :arith-make-feasible         78
 :arith-max-columns           155
 :arith-max-rows              132
 :arith-upper                 146
 :binary-propagations         58855
 :conflicts                   158
 :decisions                   371
 :del-clause                  403
 :final-checks                1
 :max-memory                  23.09
 :memory                      20.50
 :minimized-lits              587
 :mk-bool-var                 1511
 :mk-clause                   878
 :mk-clause-binary            4155
 :num-allocs                  4709102
 :num-checks                  1
 :propagations                68860
 :restarts                    1
 :rlimit-count                478985
 :solve-eqs-elim-vars         681
 :solve-eqs-steps             681
 :time                        0.13
 :total-time                  0.20)
